NAME 
ROWS
 N  OBJ
 E  R0      
 E  R1      
 E  R2      
 E  R3      
 E  R4      
 E  R5      
 E  R6      
 E  R7      
 E  R8      
 E  R9      
 E  R10     
 E  R11     
COLUMNS
    x[1]      OBJ       7
    x[1]      R0        1
    x[1]      R1        -1
    x[2]      OBJ       9
    x[2]      R0        1
    x[2]      R2        -1
    x[3]      OBJ       11
    x[3]      R0        1
    x[3]      R3        -1
    x[4]      OBJ       3
    x[4]      R1        1
    x[4]      R4        -1
    x[5]      OBJ       2
    x[5]      R1        1
    x[5]      R9        -1
    x[6]      OBJ       5
    x[6]      R2        1
    x[6]      R4        -1
    x[7]      OBJ       3
    x[7]      R2        1
    x[7]      R5        -1
    x[8]      OBJ       8
    x[8]      R3        1
    x[8]      R5        -1
    x[9]      OBJ       9
    x[9]      R3        1
    x[9]      R8        -1
    x[10]     OBJ       1
    x[10]     R4        1
    x[10]     R5        -1
    x[11]     OBJ       11
    x[11]     R4        1
    x[11]     R6        -1
    x[12]     OBJ       12
    x[12]     R4        1
    x[12]     R7        -1
    x[13]     OBJ       20
    x[13]     R5        1
    x[13]     R7        -1
    x[14]     OBJ       6
    x[14]     R5        1
    x[14]     R8        -1
    x[15]     OBJ       8
    x[15]     R6        1
    x[15]     R7        -1
    x[16]     OBJ       3
    x[16]     R6        1
    x[16]     R9        -1
    x[17]     OBJ       9
    x[17]     R6        1
    x[17]     R10       -1
    x[18]     OBJ       10
    x[18]     R8        1
    x[18]     R10       -1
    x[19]     OBJ       1
    x[19]     R8        1
    x[19]     R11       -1
    x[20]     OBJ       14
    x[20]     R9        1
    x[20]     R10       -1
    x[21]     OBJ       11
    x[21]     R9        1
    x[21]     R11       -1
    x[22]     OBJ       1
    x[22]     R10       1
    x[22]     R11       -1
RHS
    RHS1      R0        1
    RHS1      R11       -1
BOUNDS
ENDATA
